20
102
10
0 1
0 6
0 7
0 11
0 12
0 17
0 18
1 3
1 4
1 5
1 7
1 8
1 11
1 12
1 13
1 16
1 17
1 18
1 19
2 3
2 4
2 6
2 7
2 11
2 13
2 14
2 16
2 17
2 18
2 19
3 5
3 6
3 7
3 9
3 11
3 15
3 16
3 17
3 18
4 7
4 15
4 16
4 18
4 19
5 6
5 8
5 11
5 13
5 14
5 16
6 8
6 10
6 11
6 13
6 14
6 15
6 16
6 17
6 19
7 9
7 10
7 13
7 15
7 17
8 11
8 12
8 13
8 14
8 16
8 19
9 10
9 11
9 13
9 17
9 18
9 19
10 12
10 13
10 14
10 15
10 16
10 17
11 12
11 13
11 16
11 17
11 19
12 13
12 14
12 15
12 16
12 17
12 18
13 15
13 16
13 17
14 16
15 16
15 18
16 17
17 19
18 19
4 15
12 13
1 18
5 9
3 8
10 11
7 14
0 19
6 17
2 16
